Linux optc-01-01 4.15.0-58-generic #64-Ubuntu SMP Tue Aug 6 11:12:41 UTC 2019 x86_64 x86_64 x86_64 GNU/Linux

top - 20:10:26 up 1 day, 10:10,  0 users,  load average: 0,56, 0,89, 0,96
Tasks: 291 gesamt,   1 laufend, 149 schlafend,   0 gestoppt,   0 Zombie
%CPU(s):  7,0 be,  0,3 sy,  0,0 ni, 92,7 un,  0,0 wa,  0,0 hi,  0,0 si,  0,0 st
KiB Spch : 97514992 gesamt, 95480048 frei,   648684 belegt,  1386260 Puff/Cache
KiB Swap:  8388604 gesamt,  8388604 frei,        0 belegt. 96125152 verfü Spch 

  PID USER      PR  NI    VIRT    RES    SHR S  %CPU %MEM     ZEIT+ BEFEHL
    1 root      20   0  225656   9224   6516 S   0,0  0,0   0:11.63 systemd
    2 root      20   0       0      0      0 S   0,0  0,0   0:00.13 kthreadd
    3 root      20   0       0      0      0 I   0,0  0,0   0:01.75 kworker/0:0
    4 root       0 -20       0      0      0 I   0,0  0,0   0:00.00 kworker/0:+
    6 root      20   0       0      0      0 I   0,0  0,0   0:00.00 kworker/u3+
    7 root       0 -20       0      0      0 I   0,0  0,0   0:00.00 mm_percpu_+
    8 root      20   0       0      0      0 S   0,0  0,0   0:00.05 ksoftirqd/0
    9 root      20   0       0      0      0 I   0,0  0,0   0:12.06 rcu_sched

hard time limit: 04:10:00
hard mem limit: 55100

SLURM jobID: 2182459

@01 /nfs/optimi/kombadon/IP/miplib2017/uccase12.mps.gz ===========
-----------------------------
Do 22. Aug 20:10:26 CEST 2019
-----------------------------
@03 1566497426
@05 7200
SCIP version 6.0.0 [precision: 8 byte] [memory: block] [mode: optimized] [LP solver: CPLEX 12.8.0.0] [GitHash: 41ab6e0014]
Copyright (C) 2002-2018 Konrad-Zuse-Zentrum fuer Informationstechnik Berlin (ZIB)

External codes: 
  Readline 7.0         GNU library for command line editing (gnu.org/s/readline)
  CPLEX 12.8.0.0       Linear Programming Solver developed by IBM (www.cplex.com)
  CppAD 20180000.0     Algorithmic Differentiation of C++ algorithms developed by B. Bell (www.coin-or.org/CppAD)
  ZLIB 1.2.11          General purpose compression library by J. Gailly and M. Adler (zlib.net)
  GMP 6.1.2            GNU Multiple Precision Arithmetic Library developed by T. Granlund (gmplib.org)
  bliss 0.73p          Computing Graph Automorphism Groups by T. Junttila and P. Kaski (http://www.tcs.hut.fi/Software/bliss/)

user parameter file <scip.set> not found - using default parameters

SCIP> 
SCIP> set load /home/optimi/bzfhende/opti/scip-opti/check/../settings/enable_treeeprofile.set
loaded parameter file </home/optimi/bzfhende/opti/scip-opti/check/../settings/enable_treeprofile.set>
SCIP> set misc referencevalue 11507.4050616
misc/referencevalue = 11507.4050616
SCIP> set limits time 7200
limits/time = 7200
SCIP> set limits nodes 2100000000
limits/nodes = 2100000000
SCIP> set limits memory 50000
limits/memory = 50000
SCIP> set lp advanced threads 1
lp/threads = 1
SCIP> set timing clocktype 1
timing/clocktype = 1
SCIP> set display freq 10000
display/freq = 10000
SCIP> set memory savefac 1.0
memory/savefac = 1
SCIP> set save /home/optimi/bzfhende/opti/scip-opti/check/treesize.estimation.jouurnal.3/bzfhende.miplib2017.235_uccase12.scip.M640.enable_treeprofile.set
saved parameter file </home/optimi/bzfhende/opti/scip-opti/check/treesize.estimation.journal.3/bzfhende.miplib2017.235_uccase12.scip.M640.enable_treeprofile.set>
SCIP> read /nfs/optimi/kombadon/IP/miplib2017/uccase12.mps.gz

read problem </nfs/optimi/kombadon/IP/miplib2017/uccase12.mps.gz>
============

original problem has 62529 variables (9072 bin, 0 int, 0 impl, 53457 cont) and 121161 constraints
SCIP> display parameters

number of parameters = 2448
non-default parameter settings:
display/freq = 10000
limits/time = 7200
limits/nodes = 2100000000
limits/memory = 50000
lp/threads = 1
memory/savefac = 1
misc/referencevalue = 11507.4050616
presolving/maxrestarts = 0
estimates/profile/enabled = TRUE
estimates/profile/maxdepthfactor = 10
estimates/profile/freq = 0

SCIP> optimize

Activating tree profile data collection
presolving:
(round 1, fast)       22209 del vars, 28584 del conss, 0 add conss, 13137 chg bounds, 5810 chg sides, 11620 chg coeffs, 0 upgd conss, 0 impls, 0 clqs
(round 2, fast)       22263 del vars, 28584 del conss, 0 add conss, 13137 chg bounds, 5978 chg sides, 11620 chg coeffs, 0 upgd conss, 0 impls, 2 clqs
(round 3, fast)       22263 del vars, 28584 del conss, 0 add conss, 31227 chg bounds, 5978 chg sides, 11620 chg coeffs, 0 upgd conss, 0 impls, 2 clqs
(round 4, exhaustive) 22263 del vars, 32490 del conss, 0 add conss, 31227 chg bounds, 5978 chg sides, 11620 chg coeffs, 0 upgd conss, 0 impls, 2 clqs
(round 5, exhaustive) 22263 del vars, 32490 del conss, 0 add conss, 31227 chg bounds, 5978 chg sides, 11620 chg coeffs, 26019 upgd conss, 0 impls, 2 clqs
(round 6, medium)     22263 del vars, 32535 del conss, 280 add conss, 31227 chg bounds, 5990 chg sides, 11644 chg coeffs, 26019 upgd conss, 22176 impls, 270 clqs
presolving (7 rounds: 7 fast, 4 medium, 3 exhaustive):
 22288 deleted vars, 32547 deleted constraints, 280 added constraints, 31227 tightened bounds, 0 added holes, 5990 changed sides, 11802 changed coefficients
 22430 implications, 284 cliques
presolved problem has 40241 variables (9072 bin, 0 int, 0 impl, 31169 cont) and 88894 constraints
  22176 constraints of type <varbound>
   3796 constraints of type <knapsack>
    270 constraints of type <setppc>
  62652 constraints of type <linear>
Presolving Time: 1.51

 time | node  | left  |LP iter|LP it/n| mem |mdpt |frac |vars |cons |cols |rows |cuts |confs|strbr|  dualbound   | primalbound  |  gap   
  5.9s|     1 |     0 | 56784 |     - | 425M|   0 |  78 |  40k|  88k|  40k|  88k|   0 |  12 |   0 | 1.150729e+04 |      --      |    Inf 
s 6.0s|     1 |     0 | 56784 |     - | 426M|   0 |  78 |  40k|  88k|  40k|  88k|   0 |  12 |   0 | 1.150729e+04 | 1.194275e+04 |   3.78%
  6.8s|     1 |     0 | 56820 |     - | 439M|   0 |  79 |  40k|  88k|  40k|  88k|   8 |  12 |   0 | 1.150732e+04 | 1.194275e+04 |   3.78%
s 6.8s|     1 |     0 | 56820 |     - | 441M|   0 |  79 |  40k|  88k|  40k|  88k|   8 |  12 |   0 | 1.150732e+04 | 1.194027e+04 |   3.76%
  7.7s|     1 |     0 | 56859 |     - | 450M|   0 |  88 |  40k|  88k|  40k|  88k|  16 |  12 |   0 | 1.150735e+04 | 1.194027e+04 |   3.76%
s 7.7s|     1 |     0 | 56859 |     - | 453M|   0 |  88 |  40k|  88k|  40k|  88k|  16 |  13 |   0 | 1.150735e+04 | 1.193817e+04 |   3.74%
  8.6s|     1 |     0 | 56883 |     - | 462M|   0 |  78 |  40k|  88k|  40k|  88k|  23 |  13 |   0 | 1.150736e+04 | 1.193817e+04 |   3.74%
  9.4s|     1 |     0 | 56887 |     - | 471M|   0 |  75 |  40k|  88k|  40k|  88k|  24 |  13 |   0 | 1.150736e+04 | 1.193817e+04 |   3.74%
i10.3s|     1 |     0 | 57365 |     - | 486M|   0 |   - |  40k|  88k|  40k|  88k|  24 |  13 |   0 | 1.150736e+04 | 1.192262e+04 |   3.61%
F10.8s|     1 |     0 | 60301 |     - | 488M|   0 |   0 |  40k|  88k|  40k|  88k|  24 |  13 |   0 | 1.150736e+04 | 1.150791e+04 |   0.00%
E17.6s|     1 |     0 | 60301 |     - | 488M|   0 |  75 |  40k|  88k|  40k|  88k|  24 |  13 |   0 | 1.150736e+04 | 1.150790e+04 |   0.00%
 20.3s|     1 |     0 | 60301 |     - | 493M|   0 |  75 |  40k|  88k|  40k|  88k|  24 |  13 |   0 | 1.150736e+04 | 1.150790e+04 |   0.00%
 20.4s|     1 |     0 | 60301 |     - | 496M|   0 |  75 |  40k|  88k|  40k|  87k|  24 |  13 |   0 | 1.150736e+04 | 1.150790e+04 |   0.00%
 21.3s|     1 |     0 | 60304 |     - | 508M|   0 |  74 |  40k|  88k|  40k|  86k|  27 |  13 |   0 | 1.150736e+04 | 1.150790e+04 |   0.00%
 21.3s|     1 |     0 | 60304 |     - | 509M|   0 |  74 |  40k|  82k|  40k|  86k|  27 |  13 |   0 | 1.150736e+04 | 1.150790e+04 |   0.00%
 time | node  | left  |LP iter|LP it/n| mem |mdpt |frac |vars |cons |cols |rows |cuts |confs|strbr|  dualbound   | primalbound  |  gap   
 22.1s|     1 |     0 | 60316 |     - | 519M|   0 |  71 |  40k|  82k|  40k|  86k|  31 |  13 |   0 | 1.150736e+04 | 1.150790e+04 |   0.00%
 22.2s|     1 |     0 | 60335 |     - | 520M|   0 |  85 |  40k|  82k|  40k|  86k|  37 |  13 |   0 | 1.150736e+04 | 1.150790e+04 |   0.00%
SCIP nodes: 1 Estimation: -1
 24.3s|     1 |     2 | 60335 |     - | 521M|   0 |  85 |  40k|  82k|  40k|  86k|  37 |  13 |  19 | 1.150736e+04 | 1.150790e+04 |   0.00%
   (24.4s) symmetry computation started: requiring (bin +, int -, cont -), (fixed: bin -, int +, cont -)
   (27.2s) symmetry computation finished: 1375 generators found (max: 1500, log10 of symmetry group size: 2962.0)
   (27.2s) turning off presolver <domcol> for remaining computations in order to avoid conflicts
SCIP nodes: 2 Estimation: -1
SCIP nodes: 4 Estimation: -1
SCIP nodes: 8 Estimation: -1
SCIP nodes: 16 Estimation: -1
i 101s|    31 |    32 | 62209 | 176.3 | 893M|  11 |   - |  40k|  82k|  40k|  86k|  43 |  13 | 484 | 1.150736e+04 | 1.150745e+04 |   0.00%
SCIP nodes: 32 Estimation: -1
o 123s|    35 |    36 | 64138 | 212.3 | 936M|  11 |   0 |  40k|  82k|  40k|  86k|  74 |  13 | 538 | 1.150736e+04 | 1.150742e+04 |   0.00%
SCIP nodes: 64 Estimation: -1
L 260s|   106 |   107 | 76998 | 191.2 |1088M|  40 | 115 |  40k|  82k|  40k|  86k| 177 |  21 |1347 | 1.150736e+04 | 1.150741e+04 |   0.00%
SCIP nodes: 128 Estimation: -1
SCIP nodes: 256 Estimation: -1
SCIP nodes: 512 Estimation: 542.628
K 851s|   857 |   858 |130922 |  86.4 |1378M|  48 |  68 |  40k|  83k|  40k|  86k| 691 | 118 |2129 | 1.150736e+04 | 1.150741e+04 |   0.00%
SCIP nodes: 1024 Estimation: 569.4
SCIP nodes: 2048 Estimation: 544911
K2049s|  3530 |  3531 |181327 |  35.3 |1619M| 107 |  68 |  40k|  51k|  40k|  86k|1621 | 207 |2333 | 1.150737e+04 | 1.150741e+04 |   0.00%
SCIP nodes: 4096 Estimation: 1.8648e+08
SCIP nodes: 8192 Estimation: 4.08278e+08
 4750s| 10000 | 10001 |286426 |  23.0 |1870M| 116 |  69 |  40k|  49k|  40k|  86k|2996 | 341 |2561 | 1.150737e+04 | 1.150741e+04 |   0.00%
e4760s| 10022 | 10023 |286851 |  22.9 |1870M| 116 |   - |  40k|  49k|  40k|  86k|   0 | 343 |2561 | 1.150737e+04 | 1.150741e+04 |   0.00%

SCIP Status        : solving was interrupted [time limit reached]
Solving Time (sec) : 7200.26
Solving Nodes      : 15578
Primal Bound       : +1.15074050616329e+04 (75 solutions)
Dual Bound         : +1.15073730749260e+04
Gap                : 0.00 %

SCIP> display statistics

SCIP Status        : solving was interrupted [time limit reached]
Total Time         :    7200.64
  solving          :    7200.26
  presolving       :       1.51 (included in solving)
  reading          :       0.38
  copying          :       5.96 (48 #copies) (minimal 0.11, maximal 0.17, average 0.12)
Original Problem   :
  Problem name     : uccase12
  Variables        : 62529 (9072 binary, 0 integer, 0 implicit integer, 53457 continuous)
  Constraints      : 121161 initial, 121161 maximal
  Objective        : minimize, 22332 non-zeros (abs.min = 1, abs.max = 7.15725)
Presolved Problem  :
  Problem name     : t_uccase12
  Variables        : 40241 (9072 binary, 0 integer, 0 implicit integer, 31169 continuous)
  Constraints      : 88894 initial, 88894 maximal
  Objective        : minimize, 31157 non-zeros (abs.min = 1, abs.max = 742.843)
Presolvers         :   ExecTime  SetupTime  Calls  FixedVars   AggrVars   ChgTypes  ChgBounds   AddHoles    DelCons    AddCons   ChgSides   ChgCoefs
  boundshift       :       0.00       0.00      0          0          0          0          0          0          0          0          0          0
  convertinttobin  :       0.00       0.00      0          0          0          0          0          0          0          0          0          0
  domcol           :       0.07       0.00      1          0          0          0          0          0          0          0          0          0
  dualagg          :       0.00       0.00      0          0          0          0          0          0          0          0          0          0
  dualcomp         :       0.05       0.00      1          0          0          0          0          0          0          0          0          0
  dualinfer        :       0.00       0.00      0          0          0          0          0          0          0          0          0          0
  gateextraction   :       0.00       0.00      0          0          0          0          0          0          0          0          0          0
  implics          :       0.00       0.00      4          0          0          0          0          0          0          0          0          0
  inttobinary      :       0.00       0.00      0          0          0          0          0          0          0          0          0          0
  qpkktref         :       0.00       0.00      0          0          0          0          0          0          0          0          0          0
  redvub           :       0.00       0.00      0          0          0          0          0          0          0          0          0          0
  sparsify         :       0.14       0.00      1          0          0          0          0          0          0          0          0          0
  stuffing         :       0.00       0.00      0          0          0          0          0          0          0          0          0          0
  symbreak         :       0.00       0.00      0          0          0          0          0          0          0          0          0          0
  symmetry         :       0.00       0.00      0          0          0          0          0          0          0          0          0          0
  trivial          :       0.00       0.00      7          0          0          0          0          0          0          0          0          0
  tworowbnd        :       0.00       0.00      0          0          0          0          0          0          0          0          0          0
  dualfix          :       0.02       0.00      7         54          0          0          0          0          0          0          0          0
  genvbounds       :       0.00       0.00      0          0          0          0          0          0          0          0          0          0
  orbitalfixing    :       0.00       0.00      0          0          0          0          0          0          0          0          0          0
  probing          :       0.08       0.00      1         25          0          0          0          0          0          0          0          0
  pseudoobj        :       0.00       0.00      0          0          0          0          0          0          0          0          0          0
  vbounds          :       0.01       0.00      2          0          0          0          0          0          0          0          0          0
  varbound         :       0.02       0.00      4          0          0          0          0          0          0          0          0          0
  knapsack         :       0.02       0.00      5          0          0          0          0          0         45        280         12        182
  setppc           :       0.00       0.00      5          0          0          0          0          0         12          0          0          0
  linear           :       0.92       0.05     10          0      22209          0      31227          0      32490          0       5978      11620
  logicor          :       0.00       0.00      0          0          0          0          0          0          0          0          0          0
  bounddisjunction :       0.00       0.00      0          0          0          0          0          0          0          0          0          0
  benders          :       0.00       0.00      0          0          0          0          0          0          0          0          0          0
  components       :       0.05       0.00      1          0          0          0          0          0          0          0          0          0
  root node        :          -          -      -       5598          -          -      74833          -          -          -          -          -
Constraints        :     Number  MaxNumber  #Separate #Propagate    #EnfoLP    #EnfoRelax  #EnfoPS    #Check   #ResProp    Cutoffs    DomReds       Cuts    Applied      Conss   Children
  benderslp        :          0          0          0          0      15611          0          0       1997          0          0          0          0          0          0          0
  integral         :          0          0          0          0      15611          0          0       1997          0          0        106          0          0          9      31154
  varbound         :      22176      22176          7     331117          0          0          0       1991       2495         12     173770          0          0          0          0
  knapsack         :       3796       3796          7     328509          0          0          0         77         23          3        661          0          0          0          0
  setppc           :        270        270          7     331101          0          0          0         77         70          4       5136          0          0          0          0
  linear           :      62652      62652          7     331098          0          0          0         77       2121        122     229445         40          7          0          0
  logicor          :          0+       154          7      12775          0          0          0          0        123         56       2281          0          0          0          0
  bounddisjunction :          0+       161          0       8494          0          0          0          0          0          0          0          0          0          0          0
  benders          :          0          0          0          0          0          0          0         76          0          0          0          0          0          0          0
  countsols        :          0          0          0          0          0          0          0         76          0          0          0          0          0          0          0
  components       :          0          0          0          0          0          0          0          0          0          0          0          0          0          0          0
Constraint Timings :  TotalTime  SetupTime   Separate  Propagate     EnfoLP     EnfoPS     EnfoRelax   Check    ResProp    SB-Prop
  benderslp        :       0.00       0.00       0.00       0.00       0.00       0.00       0.00       0.00       0.00       0.00
  integral         :     310.61       0.00       0.00       0.00     310.60       0.00       0.00       0.01       0.00       0.00
  varbound         :       1.80       0.00       0.03       1.17       0.00       0.00       0.00       0.50       0.01       0.09
  knapsack         :       0.31       0.00       0.03       0.20       0.00       0.00       0.00       0.08       0.00       0.00
  setppc           :       0.13       0.00       0.00       0.13       0.00       0.00       0.00       0.00       0.00       0.00
  linear           :       7.07       0.05       3.62       2.34       0.00       0.00       0.00       0.99       0.00       0.07
  logicor          :       0.07       0.00       0.00       0.06       0.00       0.00       0.00       0.00       0.00       0.01
  bounddisjunction :       0.03       0.00       0.00       0.02       0.00       0.00       0.00       0.00       0.00       0.01
  benders          :       0.00       0.00       0.00       0.00       0.00       0.00       0.00       0.00       0.00       0.00
  countsols        :       0.00       0.00       0.00       0.00       0.00       0.00       0.00       0.00       0.00       0.00
  components       :       0.06       0.00       0.00       0.06       0.00       0.00       0.00       0.00       0.00       0.00
Propagators        : #Propagate   #ResProp    Cutoffs    DomReds
  dualfix          :          6          0          0       1101
  genvbounds       :          0          0          0          0
  nlobbt           :          0          0          0          0
  obbt             :          0          0          0          0
  orbitalfixing    :      18164          0          0       1097
  probing          :          0          0          0          0
  pseudoobj        :      82320          0          0          0
  redcost          :      38158          0          0      53024
  rootredcost      :          7          0          0      31823
  vbounds          :     346734          0          0          0
Propagator Timings :  TotalTime  SetupTime   Presolve  Propagate    ResProp    SB-Prop
  dualfix          :       0.02       0.00       0.02       0.00       0.00       0.00
  genvbounds       :       0.24       0.00       0.00       0.23       0.00       0.01
  nlobbt           :       0.00       0.00       0.00       0.00       0.00       0.00
  obbt             :       0.00       0.00       0.00       0.00       0.00       0.00
  orbitalfixing    :    4949.61       0.00       0.00    4949.61       0.00       0.00
  probing          :       0.08       0.00       0.08       0.00       0.00       0.00
  pseudoobj        :       1.12       0.00       0.00       1.11       0.00       0.01
  redcost          :      46.22       0.00       0.00      46.21       0.00       0.01
  rootredcost      :       0.23       0.00       0.00       0.22       0.00       0.01
  vbounds          :       3.45       0.00       0.01       3.43       0.00       0.01
Orbital fixing     :
  vars fixed to 0  :       1097
  vars fixed to 1  :          0
Conflict Analysis  :       Time      Calls    Success    DomReds  Conflicts   Literals    Reconvs ReconvLits   Dualrays   Nonzeros   LP Iters   (pool size: [10000,10000])
  propagation      :       0.00         85         77          -         84       12.8         16        2.2          -          -          -
  infeasible LP    :       0.00          0          0          -          0        0.0          0        0.0          0        0.0          0
  bound exceed. LP :      17.72        480      23777          -        625       36.1        161        2.3      23548        1.0       3560
  strong branching :       0.00          0          0          -          0        0.0          0        0.0          -          -          0
  pseudo solution  :       0.00          0          0          -          0        0.0          0        0.0          -          -          -
  applied globally :       0.00          -          -      23548        594       17.9          -          -      23548          -          -
  applied locally  :          -          -          -          0          0        0.0          -          -          0          -          -
Separators         :   ExecTime  SetupTime      Calls    Cutoffs    DomReds       Cuts    Applied      Conss
  cut pool         :       8.20                  4047          -          -     132952          -          -    (maximal pool size: 3055)
  aggregation      :      21.32       0.00        983          0          0          0          0          0
  cgmip            :       0.00       0.00          0          0          0          0          0          0
  clique           :       0.00       0.00          7          0          0          0          0          0
  closecuts        :       0.00       0.00          0          0          0          0          0          0
  cmir             :       0.00       0.00          0          0          0          0          0          0
  convexproj       :       0.00       0.00          0          0          0          0          0          0
  disjunctive      :       0.00       0.00          0          0          0          0          0          0
  eccuts           :       0.00       0.00          0          0          0          0          0          0
  flowcover        :       0.00       0.00          0          0          0          0          0          0
  gauge            :       0.00       0.00          0          0          0          0          0          0
  gomory           :      62.47       0.00        978          0          0          0       3980          0
  impliedbounds    :       1.26       0.00        983          0          2          0          0          0
  intobj           :       0.00       0.00          0          0          0          0          0          0
  mcf              :       0.03       0.00          1          0          0          0          0          0
  oddcycle         :       0.00       0.00          0          0          0          0          0          0
  rapidlearning    :       0.00       0.00          0          0          0          0          0          0
  strongcg         :       0.48       0.00          7          0          0          0          0          0
  zerohalf         :      22.05       0.00        978          0          0          0         11          0
Pricers            :   ExecTime  SetupTime      Calls       Vars
  problem variables:       0.00          -          0          0
Branching Rules    :   ExecTime  SetupTime   BranchLP  BranchExt   BranchPS    Cutoffs    DomReds       Cuts      Conss   Children
  allfullstrong    :       0.00       0.00          0          0          0          0          0          0          0          0
  cloud            :       0.00       0.00          0          0          0          0          0          0          0          0
  distribution     :       0.00       0.00          0          0          0          0          0          0          0          0
  fullstrong       :       0.00       0.00          0          0          0          0          0          0          0          0
  inference        :       0.00       0.00          0          0          0          0          0          0          0          0
  leastinf         :       0.00       0.00          0          0          0          0          0          0          0          0
  lookahead        :       0.00       0.00          0          0          0          0          0          0          0          0
  mostinf          :       0.00       0.00          0          0          0          0          0          0          0          0
  multaggr         :       0.00       0.00          0          0          0          0          0          0          0          0
  nodereopt        :       0.00       0.00          0          0          0          0          0          0          0          0
  pscost           :       0.00       0.00          0          0          0          0          0          0          0          0
  random           :       0.00       0.00          0          0          0          0          0          0          0          0
  relpscost        :     310.58       0.00      15611          0          0          0        106          0          9      31154
Primal Heuristics  :   ExecTime  SetupTime      Calls      Found       Best
  LP solutions     :       0.00          -          -          0          0
  relax solutions  :       0.00          -          -          0          0
  pseudo solutions :       0.00          -          -          0          0
  strong branching :       0.39          -          -          0          0
  actconsdiving    :       0.00       0.00          0          0          0
  alns             :      30.36       0.00          7          3          1
  bound            :       0.00       0.00          0          0          0
  clique           :       0.16       0.00          1          0          0
  coefdiving       :      21.68       0.00         86          0          0
  completesol      :       0.00       0.00          0          0          0
  conflictdiving   :       0.00       0.00          0          0          0
  crossover        :      51.74       0.00         13         13          0
  dins             :       0.00       0.00          0          0          0
  distributiondivin:     101.89       0.00        171          1          1
  dualval          :       0.00       0.00          0          0          0
  farkasdiving     :       0.00       0.00          0          0          0
  feaspump         :       0.49       0.00          1          1          1
  fixandinfer      :       0.00       0.00          0          0          0
  fracdiving       :      22.56       0.00         79          0          0
  gins             :      75.34       0.00         19         19          2
  guideddiving     :      21.91       0.00         63          0          0
  indicator        :       0.05       0.00          0          0          0
  intdiving        :       0.00       0.00          0          0          0
  intshifting      :      11.50       0.00        166          2          2
  linesearchdiving :      21.34       0.00         63          0          0
  localbranching   :       0.00       0.00          0          0          0
  locks            :       0.02       0.00          1          0          0
  lpface           :       9.72       0.00          1          0          0
  mpec             :       0.00       0.00          0          0          0
  multistart       :       0.00       0.00          0          0          0
  mutation         :       0.00       0.00          0          0          0
  nlpdiving        :       0.00       0.00          0          0          0
  objpscostdiving  :     176.23       0.00         25         18          1
  octane           :       0.00       0.00          0          0          0
  ofins            :       0.01       0.00          0          0          0
  oneopt           :       0.17       0.00          9          0          0
  proximity        :       0.00       0.00          0          0          0
  pscostdiving     :      55.19       0.00         49          0          0
  randrounding     :       0.55       0.00       1917          0          0
  rens             :       6.88       0.00          1          1          1
  reoptsols        :       0.00       0.00          0          0          0
  repair           :       0.00       0.00          0          0          0
  rins             :      17.40       0.00          8          8          0
  rootsoldiving    :      11.09       0.00          6          4          0
  rounding         :       4.67       0.00       1826          0          0
  shiftandpropagate:       0.24       0.00          1          0          0
  shifting         :      11.03       0.00       3401          5          3
  simplerounding   :       0.01       0.00          0          0          0
  subnlp           :       0.02       0.00          0          0          0
  trivial          :       0.09       0.00          2          0          0
  trivialnegation  :       0.00       0.00          0          0          0
  trysol           :       0.00       0.00          0          0          0
  twoopt           :       0.00       0.00          0          0          0
  undercover       :       0.00       0.00          0          0          0
  vbounds          :       0.00       0.00          0          0          0
  veclendiving     :      20.23       0.00         86          0          0
  zeroobj          :       0.00       0.00          0          0          0
  zirounding       :       3.08       0.00       1000          0          0
  other solutions  :          -          -          -          0          -
Diving Statistics  :      Calls      Nodes   LP Iters Backtracks  Conflicts   MinDepth   MaxDepth   AvgDepth  RoundSols  NLeafSols  MinSolDpt  MaxSolDpt  AvgSolDpt
  actconsdiving    :          0          -          -          -          -          -          -          -          -          -          -          -          -
  coefdiving       :         86      13794      13419          1         72         69        365      202.6          0          -          -          -          -
  conflictdiving   :          0          -          -          -          -          -          -          -          -          -          -          -          -
  distributiondivin:        171      10540      19580        169      12965         18        251      108.9          0          1        157        157      157.0
  farkasdiving     :          0          -          -          -          -          -          -          -          -          -          -          -          -
  fracdiving       :         79      14377      13379         22      11174         68        412      220.4          0          -          -          -          -
  guideddiving     :         63      14161      13915         26         49         63        471      264.6          0          -          -          -          -
  linesearchdiving :         63      13791      13786         28         40         85        512      257.5          0          -          -          -          -
  pscostdiving     :         49       7805      14351         12         53        120        326      203.1          0          -          -          -          -
  veclendiving     :         86       9414      13309          0         53         53        336      151.2          0          -          -          -          -
Neighborhoods      :      Calls  SetupTime  SolveTime SolveNodes       Sols       Best       Exp3  EpsGreedy        UCB TgtFixRate  Opt  Inf Node Stal  Sol  Usr Othr Actv
  rens             :          1       0.34       5.46         67          1          1    0.00000   -1.00000    1.00000      0.900    0    0    0    1    0    0    0    1
  rins             :          1       0.35       2.07         55          0          0    0.00000   -1.00000    1.00000      0.900    0    0    0    1    0    0    0    1
  mutation         :          0       0.00       0.00          0          0          0    0.00000   -1.00000    1.00000      0.900    0    0    0    0    0    0    0    1
  localbranching   :          1       0.20       4.23         50          0          0    0.00000   -1.00000    1.00000      0.900    0    0    0    1    0    0    0    1
  crossover        :          1       0.25       0.64          1          0          0    0.00000   -1.00000    1.00000      0.700    0    1    0    0    0    0    0    1
  proximity        :          1       0.28       3.11         49          2          0    0.00000   -1.00000    1.00000      0.700    1    0    0    0    0    0    0    1
  zeroobjective    :          1       0.22      10.23         50          0          0    0.00000   -1.00000    1.00000      0.900    0    0    0    1    0    0    0    1
  dins             :          1       0.24       1.99         50          0          0    0.00000   -1.00000    1.00000      0.900    0    0    0    1    0    0    0    1
LP                 :       Time      Calls Iterations  Iter/call   Iter/sec  Time-0-It Calls-0-It    ItLimit
  primal LP        :     108.41       1382          0       0.00       0.00     108.41       1382
  dual LP          :     768.95      22452     219161      12.57     285.01      43.60       5020
  lex dual LP      :       0.00          0          0       0.00          -
  barrier LP       :       0.00          0          0       0.00          -       0.00          0
  resolve instable :       0.00          0          0       0.00          -
  diving/probing LP:     367.24       7034     162742      23.14     443.15
  strong branching :     252.14       2787      20877       7.49      82.80          -          -         90
    (at root node) :          -         19        102       5.37          -
  conflict analysis:      10.98        357       3560       9.97     324.23
B&B Tree           :
  number of runs   :          1
  nodes            :      15578 (15577 internal, 1 leaves)
  feasible leaves  :          0
  infeas. leaves   :          0
  objective leaves :          0
  nodes (total)    :      15578 (15577 internal, 1 leaves)
  nodes left       :      15578
  max depth        :        116
  max depth (total):        116
  backtracks       :       1504 (9.7%)
  early backtracks :       1504 (100.0%)
  nodes exc. ref.  :          0 (0.0%)
  delayed cutoffs  :          0
  repropagations   :       2601 (38869 domain reductions, 0 cutoffs)
  avg switch length:       5.45
  switching time   :     118.80
Root Node          :
  First LP value   : +1.15072913891557e+04
  First LP Iters   :      56784 (15347.03 Iter/sec)
  First LP Time    :       3.70
  Final Dual Bound : +1.15073607098043e+04
  Final Root Iters :      56921
  Root LP Estimate : +1.15073861656692e+04
Solution           :
  Solutions found  :         75 (12 improvements)
  First Solution   : +1.19427450372262e+04   (in run 1, after 1 nodes, 5.93 seconds, depth 0, found by <shifting>)
  Gap First Sol.   :       3.78 %
  Gap Last Sol.    :       0.00 %
  Primal Bound     : +1.15074050616329e+04   (in run 1, after 10022 nodes, 4760.27 seconds, depth 157, found by <distributiondiving>)
  Dual Bound       : +1.15073730749260e+04
  Gap              :       0.00 %
  Avg. Gap         :       0.09 % (616.17 primal-dual integral)
  Tree Data        : 31155 nodes (15577 visited, 15577 inner, 0 leaves, 15578 open), progress: 0.0000
Tree Estimation    :       estim       value       trend  resolution      smooth
  wbe              :          -1           -           -           -           -
  tree profile     :   830297851           -           -           -           -
  gap              :          -1     0.00000 999999999999999967336168804116691273849533185806555472917961779471295845921727862608739868455469056.00000           1 999999999999999967336168804116691273849533185806555472917961779471295845921727862608739868455469056
  progress         :          -1     0.00000 999999999999999967336168804116691273849533185806555472917961779471295845921727862608739868455469056.00000           1 999999999999999967336168804116691273849533185806555472917961779471295845921727862608739868455469056
  leaf-frequency   :          -1    -0.50000 999999999999999967336168804116691273849533185806555472917961779471295845921727862608739868455469056.00000           1 999999999999999967336168804116691273849533185806555472917961779471295845921727862608739868455469056
  ssg              :          -1     1.00000 999999999999999967336168804116691273849533185806555472917961779471295845921727862608739868455469056.00000           1 999999999999999967336168804116691273849533185806555472917961779471295845921727862608739868455469056
  open-nodes       :          -1     0.00000 999999999999999967336168804116691273849533185806555472917961779471295845921727862608739868455469056.00000           1 999999999999999967336168804116691273849533185806555472917961779471295845921727862608739868455469056

@04 1566504663
-----------------------------
Do 22. Aug 22:11:03 CEST 2019
-----------------------------

=ready=
